100
32
20
5
11
12
12
25
20
12
26
26
8
24
12
9
10
18
1
2
6
1
1
2
5
5
1
1
3
2
2
1
1
1
12
1
1
17
2
1
1
17
1
3
2
17
3
6
3
4
1
1
14
17
2
2
4
17
4
16
1
1
1
2
1
1
3
6
4
4
3
1
1
18
2
1
1
1
18
3
2
9
17
4
2
1
1
18
3
4
2
5
4
3
19
2
1
3
3
2
1
1